NAME : 10_3_3_2_(25).dat
COMMENT : Henke, Speranza, Wäscher, 2015
TYPE : MCVRP
DIMENSION : 11
EDGE_WEIGHT_TYPE : DISTANCE_MATRIX
CAPACITY : 1000
VEHICLES : 3
PRODUCT TYPES : 3
COMPARTMENTS : 3
NODE_COORD_SECTION
1 50 50
2 88.96 8.26
3 85.08 80.76
4 5.34 2.78
5 97.92 38.8
6 52.11 94.05
7 68.06 1.72
8 42.6 20.65
9 41.89 71.39
10 67.55 36.14
11 17.58 72.6
DEMAND_SECTION
1 0 0 0
2 22 23 0
3 109 148 0
4 0 20 14
5 53 0 104
6 236 47 0
7 191 60 0
8 87 0 77
9 0 112 129
10 70 81 0
11 50 0 3
DEPOT_SECTION
1
EOF